; benchmark generated from python API
(set-info :status unknown)
(declare-fun x_days () (_ BitVec 32))
(declare-fun y_days () (_ BitVec 32))
(assert
 (bvsle (_ bv4294930771 32) x_days))
(assert
 (bvsge (_ bv36523 32) x_days))
(assert
 (bvsle (_ bv4294930771 32) y_days))
(assert
 (bvsge (_ bv36523 32) y_days))
(assert
 (= x_days (_ bv7304 32)))
(assert
 (let ((?x6906 (bvadd x_days (_ bv730179 32))))
 (let ((?x8156 (bvsmod ?x6906 (_ bv146097 32))))
 (let ((?x5171 (bvsdiv ?x8156 (_ bv36524 32))))
 (let ((?x1403 (ite (bvsle (_ bv4 32) ?x5171) (_ bv3 32) ?x5171)))
 (let ((?x2761 (bvsub ?x8156 (bvmul ?x1403 (_ bv36524 32)))))
 (let ((?x3894 (bvsmod ?x2761 (_ bv1461 32))))
 (let ((?x2670 (bvsdiv ?x3894 (_ bv365 32))))
 (let ((?x4204 (ite (bvsle (_ bv4 32) ?x2670) (_ bv3 32) ?x2670)))
 (let ((?x813 (bvadd (bvadd (bvmul (bvsdiv ?x6906 (_ bv146097 32)) (_ bv400 32)) (bvmul ?x1403 (_ bv100 32))) (bvmul (bvsdiv ?x2761 (_ bv1461 32)) (_ bv4 32)))))
 (let ((?x2703 (bvadd (bvadd ?x813 ?x4204) (_ bv1 32))))
 (let (($x3118 (or (and (= (bvsmod ?x2703 (_ bv4 32)) (_ bv0 32)) (and (distinct (bvsmod ?x2703 (_ bv100 32)) (_ bv0 32)) true)) (= (bvsmod ?x2703 (_ bv400 32)) (_ bv0 32)))))
 (let ((?x2214 (bvsub ?x3894 (bvmul ?x4204 (_ bv365 32)))))
 (let ((?x5726 (ite $x3118 (_ bv31 32) (_ bv31 32))))
 (let (($x2961 (bvsge ?x2214 ?x5726)))
 (let ((?x2059 (ite $x2961 (bvadd (bvsub ?x2214 ?x5726) (_ bv1 32)) (bvadd (bvsub ?x2214 (ite $x3118 (_ bv0 32) (_ bv0 32))) (_ bv1 32)))))
 (let ((?x1761 (ite $x3118 (_ bv60 32) (_ bv59 32))))
 (let (($x6068 (bvsge ?x2214 ?x1761)))
 (let ((?x1026 (ite $x3118 (_ bv91 32) (_ bv90 32))))
 (let (($x45249 (bvsge ?x2214 ?x1026)))
 (let ((?x3461 (ite $x45249 (bvadd (bvsub ?x2214 ?x1026) (_ bv1 32)) (ite $x6068 (bvadd (bvsub ?x2214 ?x1761) (_ bv1 32)) ?x2059))))
 (let ((?x5133 (ite $x3118 (_ bv121 32) (_ bv120 32))))
 (let (($x5452 (bvsge ?x2214 ?x5133)))
 (let ((?x4228 (ite $x3118 (_ bv152 32) (_ bv151 32))))
 (let (($x2296 (bvsge ?x2214 ?x4228)))
 (let ((?x77019 (ite $x2296 (bvadd (bvsub ?x2214 ?x4228) (_ bv1 32)) (ite $x5452 (bvadd (bvsub ?x2214 ?x5133) (_ bv1 32)) ?x3461))))
 (let ((?x7263 (ite $x3118 (_ bv182 32) (_ bv181 32))))
 (let (($x7289 (bvsge ?x2214 ?x7263)))
 (let ((?x2516 (ite $x3118 (_ bv213 32) (_ bv212 32))))
 (let (($x3223 (bvsge ?x2214 ?x2516)))
 (let ((?x57757 (ite $x3223 (bvadd (bvsub ?x2214 ?x2516) (_ bv1 32)) (ite $x7289 (bvadd (bvsub ?x2214 ?x7263) (_ bv1 32)) ?x77019))))
 (let ((?x4147 (ite $x3118 (_ bv244 32) (_ bv243 32))))
 (let (($x3847 (bvsge ?x2214 ?x4147)))
 (let ((?x6626 (ite $x3118 (_ bv274 32) (_ bv273 32))))
 (let (($x17711 (bvsge ?x2214 ?x6626)))
 (let ((?x1140 (ite $x17711 (bvadd (bvsub ?x2214 ?x6626) (_ bv1 32)) (ite $x3847 (bvadd (bvsub ?x2214 ?x4147) (_ bv1 32)) ?x57757))))
 (let ((?x12477 (ite $x3118 (_ bv305 32) (_ bv304 32))))
 (let (($x4210 (bvsge ?x2214 ?x12477)))
 (let ((?x650 (ite $x3118 (_ bv335 32) (_ bv334 32))))
 (let (($x3183 (bvsge ?x2214 ?x650)))
 (let ((?x2639 (ite $x3183 (bvadd (bvsub ?x2214 ?x650) (_ bv1 32)) (ite $x4210 (bvadd (bvsub ?x2214 ?x12477) (_ bv1 32)) ?x1140))))
 (let ((?x76075 (ite $x2296 (_ bv6 32) (ite $x5452 (_ bv5 32) (ite $x45249 (_ bv4 32) (ite $x6068 (_ bv3 32) (ite $x2961 (_ bv2 32) (_ bv1 32))))))))
 (let ((?x3364 (ite $x4210 (_ bv11 32) (ite $x17711 (_ bv10 32) (ite $x3847 (_ bv9 32) (ite $x3223 (_ bv8 32) (ite $x7289 (_ bv7 32) ?x76075)))))))
 (let ((?x37289 (bvadd (ite $x3183 (_ bv12 32) ?x3364) (bvadd (bvmul (_ bv1 32) (_ bv12 32)) (_ bv0 32)))))
 (let ((?x2125 (bvsub (ite (bvuge ?x37289 (_ bv2147483648 32)) (bvsub ?x37289 (_ bv0 32)) ?x37289) (_ bv1 32))))
 (let ((?x1875 (bvsmod ?x2125 (_ bv12 32))))
 (let ((?x5173 (bvadd ?x1875 (_ bv1 32))))
 (let ((?x80889 (ite (or (= ?x5173 (_ bv4 32)) (= ?x5173 (_ bv6 32)) (= ?x5173 (_ bv9 32)) (= ?x5173 (_ bv11 32))) (_ bv30 32) (_ bv31 32))))
 (let ((?x3564 (bvsdiv ?x2125 (_ bv12 32))))
 (let ((?x61617 (ite (and (bvuge ?x2125 (_ bv2147483648 32)) (and (distinct (_ bv0 32) ?x1875) true)) (bvsub ?x3564 (_ bv1 32)) ?x3564)))
 (let ((?x654 (bvadd ?x2703 (bvadd (_ bv0 32) ?x61617))))
 (let (($x45555 (or (and (= (bvsmod ?x654 (_ bv4 32)) (_ bv0 32)) (and (distinct (bvsmod ?x654 (_ bv100 32)) (_ bv0 32)) true)) (= (bvsmod ?x654 (_ bv400 32)) (_ bv0 32)))))
 (let ((?x3329 (ite (= ?x5173 (_ bv2 32)) (ite $x45555 (_ bv29 32) (_ bv28 32)) ?x80889)))
 (let ((?x42519 (ite (bvsgt (_ bv1 32) ?x2639) (_ bv1 32) (ite (bvsgt ?x2639 ?x3329) ?x3329 ?x2639))))
 (let ((?x6124 (ite (bvsgt (_ bv1 32) ?x42519) (_ bv1 32) (ite (bvsgt ?x42519 ?x3329) ?x3329 ?x42519))))
 (let ((?x5266 (ite (= (_ bv2 32) ?x5173) (ite $x45555 (_ bv31 32) (_ bv31 32)) (ite (= (_ bv1 32) ?x5173) (ite $x45555 (_ bv0 32) (_ bv0 32)) (_ bv0 32)))))
 (let ((?x1173 (ite (= (_ bv4 32) ?x5173) (ite $x45555 (_ bv91 32) (_ bv90 32)) (ite (= (_ bv3 32) ?x5173) (ite $x45555 (_ bv60 32) (_ bv59 32)) ?x5266))))
 (let ((?x7380 (ite (= (_ bv6 32) ?x5173) (ite $x45555 (_ bv152 32) (_ bv151 32)) (ite (= (_ bv5 32) ?x5173) (ite $x45555 (_ bv121 32) (_ bv120 32)) ?x1173))))
 (let ((?x14778 (ite (= (_ bv8 32) ?x5173) (ite $x45555 (_ bv213 32) (_ bv212 32)) (ite (= (_ bv7 32) ?x5173) (ite $x45555 (_ bv182 32) (_ bv181 32)) ?x7380))))
 (let ((?x15556 (ite (= (_ bv10 32) ?x5173) (ite $x45555 (_ bv274 32) (_ bv273 32)) (ite (= (_ bv9 32) ?x5173) (ite $x45555 (_ bv244 32) (_ bv243 32)) ?x14778))))
 (let ((?x24219 (ite (= (_ bv12 32) ?x5173) (ite $x45555 (_ bv335 32) (_ bv334 32)) (ite (= (_ bv11 32) ?x5173) (ite $x45555 (_ bv305 32) (_ bv304 32)) ?x15556))))
 (let ((?x4494 (bvadd (bvmul (_ bv365 32) (bvsub ?x654 (_ bv1 32))) (bvsdiv (bvsub ?x654 (_ bv1 32)) (_ bv4 32)))))
 (let ((?x1038 (bvadd (bvsub ?x4494 (bvsdiv (bvsub ?x654 (_ bv1 32)) (_ bv100 32))) (bvsdiv (bvsub ?x654 (_ bv1 32)) (_ bv400 32)))))
 (let ((?x1118 (bvadd (bvadd (bvsub (bvadd (bvadd ?x1038 ?x24219) (bvsub ?x6124 (_ bv1 32))) (_ bv730179 32)) (_ bv0 32)) (_ bv730179 32))))
 (let ((?x12444 (bvsmod ?x1118 (_ bv146097 32))))
 (let ((?x5445 (bvsdiv ?x12444 (_ bv36524 32))))
 (let ((?x26201 (ite (bvsle (_ bv4 32) ?x5445) (_ bv3 32) ?x5445)))
 (let ((?x26261 (bvsub ?x12444 (bvmul ?x26201 (_ bv36524 32)))))
 (let ((?x2578 (bvsmod ?x26261 (_ bv1461 32))))
 (let ((?x885 (bvsdiv ?x2578 (_ bv365 32))))
 (let ((?x14572 (ite (bvsle (_ bv4 32) ?x885) (_ bv3 32) ?x885)))
 (let ((?x20760 (bvadd (bvadd (bvmul (bvsdiv ?x1118 (_ bv146097 32)) (_ bv400 32)) (bvmul ?x26201 (_ bv100 32))) (bvmul (bvsdiv ?x26261 (_ bv1461 32)) (_ bv4 32)))))
 (let ((?x8141 (bvadd (bvadd ?x20760 ?x14572) (_ bv1 32))))
 (let (($x20653 (or (and (= (bvsmod ?x8141 (_ bv4 32)) (_ bv0 32)) (and (distinct (bvsmod ?x8141 (_ bv100 32)) (_ bv0 32)) true)) (= (bvsmod ?x8141 (_ bv400 32)) (_ bv0 32)))))
 (let ((?x73979 (bvsub ?x2578 (bvmul ?x14572 (_ bv365 32)))))
 (let ((?x20667 (ite $x20653 (_ bv31 32) (_ bv31 32))))
 (let (($x15065 (bvsge ?x73979 ?x20667)))
 (let ((?x3359 (ite $x15065 (bvadd (bvsub ?x73979 ?x20667) (_ bv1 32)) (bvadd (bvsub ?x73979 (ite $x20653 (_ bv0 32) (_ bv0 32))) (_ bv1 32)))))
 (let ((?x14937 (ite $x20653 (_ bv60 32) (_ bv59 32))))
 (let (($x73943 (bvsge ?x73979 ?x14937)))
 (let ((?x3153 (ite $x20653 (_ bv91 32) (_ bv90 32))))
 (let (($x15664 (bvsge ?x73979 ?x3153)))
 (let ((?x80507 (ite $x15664 (bvadd (bvsub ?x73979 ?x3153) (_ bv1 32)) (ite $x73943 (bvadd (bvsub ?x73979 ?x14937) (_ bv1 32)) ?x3359))))
 (let ((?x24318 (ite $x20653 (_ bv121 32) (_ bv120 32))))
 (let (($x7226 (bvsge ?x73979 ?x24318)))
 (let ((?x15272 (ite $x20653 (_ bv152 32) (_ bv151 32))))
 (let (($x3325 (bvsge ?x73979 ?x15272)))
 (let ((?x45950 (ite $x3325 (bvadd (bvsub ?x73979 ?x15272) (_ bv1 32)) (ite $x7226 (bvadd (bvsub ?x73979 ?x24318) (_ bv1 32)) ?x80507))))
 (let ((?x6990 (ite $x20653 (_ bv182 32) (_ bv181 32))))
 (let (($x2760 (bvsge ?x73979 ?x6990)))
 (let ((?x2778 (ite $x20653 (_ bv213 32) (_ bv212 32))))
 (let (($x8256 (bvsge ?x73979 ?x2778)))
 (let ((?x3300 (ite $x8256 (bvadd (bvsub ?x73979 ?x2778) (_ bv1 32)) (ite $x2760 (bvadd (bvsub ?x73979 ?x6990) (_ bv1 32)) ?x45950))))
 (let ((?x14997 (ite $x20653 (_ bv244 32) (_ bv243 32))))
 (let (($x58981 (bvsge ?x73979 ?x14997)))
 (let ((?x73403 (ite $x20653 (_ bv274 32) (_ bv273 32))))
 (let (($x425 (bvsge ?x73979 ?x73403)))
 (let ((?x5086 (ite $x425 (bvadd (bvsub ?x73979 ?x73403) (_ bv1 32)) (ite $x58981 (bvadd (bvsub ?x73979 ?x14997) (_ bv1 32)) ?x3300))))
 (let ((?x15725 (ite $x20653 (_ bv305 32) (_ bv304 32))))
 (let (($x3867 (bvsge ?x73979 ?x15725)))
 (let ((?x8246 (ite $x20653 (_ bv335 32) (_ bv334 32))))
 (let (($x3741 (bvsge ?x73979 ?x8246)))
 (let ((?x2087 (ite $x3741 (bvadd (bvsub ?x73979 ?x8246) (_ bv1 32)) (ite $x3867 (bvadd (bvsub ?x73979 ?x15725) (_ bv1 32)) ?x5086))))
 (let (($x3034 (= (_ bv0 32) (_ bv0 32))))
 (let (($x19938 (and (= (bvsmod (ite $x3034 ?x654 ?x8141) (_ bv4 32)) (_ bv0 32)) (and (distinct (bvsmod (ite $x3034 ?x654 ?x8141) (_ bv100 32)) (_ bv0 32)) true))))
 (let (($x21545 (or $x19938 (= (bvsmod (ite $x3034 ?x654 ?x8141) (_ bv400 32)) (_ bv0 32)))))
 (let ((?x20773 (ite $x3325 (_ bv6 32) (ite $x7226 (_ bv5 32) (ite $x15664 (_ bv4 32) (ite $x73943 (_ bv3 32) (ite $x15065 (_ bv2 32) (_ bv1 32))))))))
 (let ((?x5310 (ite $x3867 (_ bv11 32) (ite $x425 (_ bv10 32) (ite $x58981 (_ bv9 32) (ite $x8256 (_ bv8 32) (ite $x2760 (_ bv7 32) ?x20773)))))))
 (let ((?x20713 (ite $x3034 ?x5173 (ite $x3741 (_ bv12 32) ?x5310))))
 (let ((?x58459 (ite (= (_ bv2 32) ?x20713) (ite $x21545 (_ bv31 32) (_ bv31 32)) (ite (= (_ bv1 32) ?x20713) (ite $x21545 (_ bv0 32) (_ bv0 32)) (_ bv0 32)))))
 (let ((?x39638 (ite (= (_ bv4 32) ?x20713) (ite $x21545 (_ bv91 32) (_ bv90 32)) (ite (= (_ bv3 32) ?x20713) (ite $x21545 (_ bv60 32) (_ bv59 32)) ?x58459))))
 (let ((?x1138 (ite (= (_ bv6 32) ?x20713) (ite $x21545 (_ bv152 32) (_ bv151 32)) (ite (= (_ bv5 32) ?x20713) (ite $x21545 (_ bv121 32) (_ bv120 32)) ?x39638))))
 (let ((?x2065 (ite (= (_ bv8 32) ?x20713) (ite $x21545 (_ bv213 32) (_ bv212 32)) (ite (= (_ bv7 32) ?x20713) (ite $x21545 (_ bv182 32) (_ bv181 32)) ?x1138))))
 (let ((?x1368 (ite (= (_ bv10 32) ?x20713) (ite $x21545 (_ bv274 32) (_ bv273 32)) (ite (= (_ bv9 32) ?x20713) (ite $x21545 (_ bv244 32) (_ bv243 32)) ?x2065))))
 (let ((?x992 (ite (= (_ bv12 32) ?x20713) (ite $x21545 (_ bv335 32) (_ bv334 32)) (ite (= (_ bv11 32) ?x20713) (ite $x21545 (_ bv305 32) (_ bv304 32)) ?x1368))))
 (let ((?x600 (bvadd (bvmul (_ bv365 32) (bvsub (ite $x3034 ?x654 ?x8141) (_ bv1 32))) (bvsdiv (bvsub (ite $x3034 ?x654 ?x8141) (_ bv1 32)) (_ bv4 32)))))
 (let ((?x633 (bvadd (bvsub ?x600 (bvsdiv (bvsub (ite $x3034 ?x654 ?x8141) (_ bv1 32)) (_ bv100 32))) (bvsdiv (bvsub (ite $x3034 ?x654 ?x8141) (_ bv1 32)) (_ bv400 32)))))
 (let ((?x2862 (bvsub (bvadd (bvadd ?x633 ?x992) (bvsub (ite $x3034 ?x6124 ?x2087) (_ bv1 32))) (_ bv730179 32))))
 (= y_days ?x2862)))))))))))))))))))))))))))))))))))))))))))))))))))))))))))))))))))))))))))))))))))))))))))))))))))))))))))))))))))))))
(assert
 (not (= y_days (_ bv7669 32))))
(check-sat)
